NAME: cum170.tsp
TYPE: TSP
COMMENT: User-generated TSP file
DIMENSION: 170
EDGE_WEIGHT_TYPE: EUC_2D
NODE_COORD_SECTION
1 22.0 95.0
2 66.0 83.0
3 70.0 18.0
4 86.0 75.0
5 89.0 44.0
6 155.0 94.0
7 120.0 123.0
8 133.0 78.0
9 29.0 30.0
10 72.0 160.0
11 99.0 149.0
12 52.0 47.0
13 157.0 61.0
14 30.0 33.0
15 13.0 83.0
16 106.0 2.0
17 44.0 41.0
18 170.0 105.0
19 28.0 168.0
20 70.0 165.0
21 149.0 21.0
22 48.0 91.0
23 114.0 89.0
24 49.0 95.0
25 32.0 149.0
26 9.0 156.0
27 23.0 48.0
28 13.0 54.0
29 100.0 11.0
30 126.0 166.0
31 116.0 73.0
32 60.0 34.0
33 62.0 42.0
34 118.0 46.0
35 154.0 95.0
36 3.0 28.0
37 68.0 88.0
38 3.0 26.0
39 89.0 146.0
40 41.0 106.0
41 64.0 5.0
42 33.0 4.0
43 8.0 166.0
44 77.0 100.0
45 136.0 23.0
46 79.0 146.0
47 44.0 20.0
48 170.0 24.0
49 88.0 93.0
50 110.0 125.0
51 95.0 13.0
52 151.0 116.0
53 100.0 88.0
54 111.0 67.0
55 6.0 134.0
56 29.0 129.0
57 128.0 37.0
58 5.0 50.0
59 17.0 21.0
60 57.0 83.0
61 102.0 26.0
62 10.0 160.0
63 64.0 163.0
64 84.0 143.0
65 42.0 115.0
66 148.0 136.0
67 110.0 24.0
68 11.0 12.0
69 153.0 31.0
70 111.0 106.0
71 148.0 118.0
72 145.0 21.0
73 42.0 25.0
74 114.0 55.0
75 58.0 15.0
76 30.0 113.0
77 18.0 81.0
78 6.0 50.0
79 149.0 155.0
80 68.0 57.0
81 142.0 24.0
82 144.0 151.0
83 152.0 35.0
84 26.0 88.0
85 10.0 61.0
86 30.0 35.0
87 35.0 27.0
88 74.0 69.0
89 93.0 67.0
90 132.0 34.0
91 55.0 87.0
92 72.0 98.0
93 92.0 32.0
94 16.0 133.0
95 60.0 26.0
96 69.0 123.0
97 8.0 168.0
98 167.0 84.0
99 65.0 74.0
100 81.0 145.0
101 78.0 142.0
102 42.0 16.0
103 146.0 26.0
104 12.0 4.0
105 58.0 65.0
106 2.0 68.0
107 66.0 95.0
108 18.0 66.0
109 62.0 115.0
110 145.0 67.0
111 99.0 131.0
112 91.0 28.0
113 125.0 11.0
114 38.0 85.0
115 48.0 84.0
116 42.0 55.0
117 123.0 61.0
118 102.0 63.0
119 153.0 131.0
120 12.0 121.0
121 167.0 10.0
122 123.0 53.0
123 32.0 122.0
124 131.0 109.0
125 79.0 26.0
126 13.0 135.0
127 33.0 67.0
128 102.0 82.0
129 13.0 6.0
130 96.0 155.0
131 108.0 53.0
132 130.0 43.0
133 105.0 144.0
134 76.0 15.0
135 48.0 109.0
136 157.0 161.0
137 120.0 47.0
138 121.0 55.0
139 128.0 39.0
140 114.0 118.0
141 163.0 91.0
142 14.0 57.0
143 77.0 50.0
144 143.0 125.0
145 113.0 49.0
146 163.0 5.0
147 21.0 33.0
148 135.0 93.0
149 141.0 46.0
150 69.0 74.0
151 49.0 23.0
152 152.0 141.0
153 143.0 152.0
154 79.0 78.0
155 13.0 43.0
156 90.0 133.0
157 156.0 101.0
158 134.0 21.0
159 121.0 162.0
160 112.0 116.0
161 2.0 92.0
162 95.0 64.0
163 147.0 69.0
164 46.0 128.0
165 145.0 82.0
166 117.0 92.0
167 134.0 159.0
168 18.0 168.0
169 121.0 45.0
170 65.0 91.0
EOF





